Route #1: 57 40 46 87
Route #2: 86 85 81 78 77
Route #3: 91 88 84 82 83 90
Route #4: 74 72 61 64 66 69 0 68 65 49 54 53 55 0 18 19 16 14 12
Route #5: 1 99 100 97 92 94 0 37 38 39 36 34 0 56 58 60 59 44 0 45 51 50 52 47 42 41 43 48 0 8 21
Route #6: 20 22 24 27 30 29 6 0 7 95 98 3 4 89 0 17 15 13 9
Route #7: 67 62 63 0 76 71 70 73 79 80 96
Route #8: 5 2 75 93 0 32 33 35 31 0 28 26 23 25 11 10
Cost: 14917
Optimal: True
